language Essence 1.3

letting length be 4
letting vincular_avoidance be {(sequence(1,3,2),{1})}




$ 14 Solutions for avoidance should be 
$ Avoiding pattern
$ 1234, 2134, 2314 ,2341, 3124, 3214, 3241, 3412, 3421, 4123, 4213, 4231, 4312, 4321
